p tw 144 26641 2 
1 74 
1 75 
1 77 
1 79 
1 81 
1 84 
1 85 
1 87 
1 89 
1 92 
1 94 
1 95 
1 97 
1 99 
1 101 
1 103 
1 105 
1 107 
1 110 
1 111 
1 113 
1 115 
1 117 
1 120 
1 121 
1 123 
1 126 
1 127 
1 129 
1 131 
1 133 
1 136 
1 138 
1 139 
1 142 
1 144 
2 73 
2 76 
2 78 
2 80 
2 82 
2 83 
2 86 
2 88 
2 90 
2 91 
2 93 
2 96 
2 98 
2 100 
2 102 
2 104 
2 106 
2 108 
2 109 
2 112 
2 114 
2 116 
2 118 
2 119 
2 122 
2 124 
2 125 
2 128 
2 130 
2 132 
2 134 
2 135 
2 137 
2 140 
2 141 
2 143 
3 4 
3 74 
3 75 
3 78 
3 80 
3 81 
3 83 
3 86 
3 87 
3 90 
3 92 
3 94 
3 95 
3 98 
3 99 
3 101 
3 103 
3 106 
3 108 
3 110 
3 112 
3 113 
3 115 
3 117 
3 119 
3 122 
3 124 
3 125 
3 128 
3 129 
3 132 
3 133 
3 136 
3 138 
3 140 
3 141 
3 143 
4 73 
4 76 
4 77 
4 79 
4 82 
4 84 
4 85 
4 88 
4 89 
4 91 
4 93 
4 96 
4 97 
4 100 
4 102 
4 104 
4 105 
4 107 
4 109 
4 111 
4 114 
4 116 
4 118 
4 120 
4 121 
4 123 
4 126 
4 127 
4 130 
4 131 
4 134 
4 135 
4 137 
4 139 
4 142 
4 144 
5 6 
5 74 
5 75 
5 77 
5 80 
5 82 
5 84 
5 85 
5 87 
5 90 
5 91 
5 94 
5 95 
5 98 
5 100 
5 101 
5 104 
5 106 
5 107 
5 110 
5 112 
5 114 
5 116 
5 118 
5 120 
5 122 
5 124 
5 126 
5 128 
5 130 
5 131 
5 134 
5 136 
5 138 
5 140 
5 142 
5 144 
6 73 
6 76 
6 78 
6 79 
6 81 
6 83 
6 86 
6 88 
6 89 
6 92 
6 93 
6 96 
6 97 
6 99 
6 102 
6 103 
6 105 
6 108 
6 109 
6 111 
6 113 
6 115 
6 117 
6 119 
6 121 
6 123 
6 125 
6 127 
6 129 
6 132 
6 133 
6 135 
6 137 
6 139 
6 141 
6 143 
7 8 
7 74 
7 76 
7 77 
7 79 
7 82 
7 84 
7 86 
7 87 
7 90 
7 91 
7 93 
7 96 
7 97 
7 100 
7 101 
7 103 
7 106 
7 107 
7 109 
7 112 
7 113 
7 115 
7 117 
7 120 
7 121 
7 124 
7 125 
7 128 
7 130 
7 132 
7 133 
7 135 
7 138 
7 139 
7 142 
7 143 
8 73 
8 75 
8 78 
8 80 
8 81 
8 83 
8 85 
8 88 
8 89 
8 92 
8 94 
8 95 
8 98 
8 99 
8 102 
8 104 
8 105 
8 108 
8 110 
8 111 
8 114 
8 116 
8 118 
8 119 
8 122 
8 123 
8 126 
8 127 
8 129 
8 131 
8 134 
8 136 
8 137 
8 140 
8 141 
8 144 
9 10 
9 74 
9 75 
9 78 
9 79 
9 82 
9 84 
9 85 
9 88 
9 90 
9 92 
9 94 
9 96 
9 97 
9 100 
9 101 
9 104 
9 105 
9 108 
9 109 
9 112 
9 114 
9 115 
9 118 
9 119 
9 121 
9 124 
9 125 
9 127 
9 129 
9 131 
9 134 
9 136 
9 138 
9 139 
9 141 
9 143 
10 73 
10 76 
10 77 
10 80 
10 81 
10 83 
10 86 
10 87 
10 89 
10 91 
10 93 
10 95 
10 98 
10 99 
10 102 
10 103 
10 106 
10 107 
10 110 
10 111 
10 113 
10 116 
10 117 
10 120 
10 122 
10 123 
10 126 
10 128 
10 130 
10 132 
10 133 
10 135 
10 137 
10 140 
10 142 
10 144 
11 12 
11 73 
11 76 
11 78 
11 80 
11 82 
11 84 
11 85 
11 87 
11 90 
11 91 
11 93 
11 96 
11 98 
11 99 
11 101 
11 104 
11 105 
11 108 
11 109 
11 112 
11 113 
11 115 
11 117 
11 120 
11 122 
11 123 
11 126 
11 128 
11 129 
11 131 
11 133 
11 136 
11 137 
11 139 
11 141 
11 144 
12 74 
12 75 
12 77 
12 79 
12 81 
12 83 
12 86 
12 88 
12 89 
12 92 
12 94 
12 95 
12 97 
12 100 
12 102 
12 103 
12 106 
12 107 
12 110 
12 111 
12 114 
12 116 
12 118 
12 119 
12 121 
12 124 
12 125 
12 127 
12 130 
12 132 
12 134 
12 135 
12 138 
12 140 
12 142 
12 143 
13 14 
13 74 
13 76 
13 77 
13 80 
13 81 
13 83 
13 86 
13 88 
13 89 
13 91 
13 93 
13 95 
13 97 
13 100 
13 101 
13 103 
13 105 
13 108 
13 109 
13 112 
13 113 
13 115 
13 118 
13 120 
13 122 
13 124 
13 125 
13 127 
13 129 
13 131 
13 134 
13 136 
13 137 
13 140 
13 142 
13 144 
14 73 
14 75 
14 78 
14 79 
14 82 
14 84 
14 85 
14 87 
14 90 
14 92 
14 94 
14 96 
14 98 
14 99 
14 102 
14 104 
14 106 
14 107 
14 110 
14 111 
14 114 
14 116 
14 117 
14 119 
14 121 
14 123 
14 126 
14 128 
14 130 
14 132 
14 133 
14 135 
14 138 
14 139 
14 141 
14 143 
15 16 
15 74 
15 76 
15 77 
15 79 
15 82 
15 83 
15 85 
15 87 
15 89 
15 91 
15 94 
15 95 
15 98 
15 99 
15 102 
15 103 
15 105 
15 108 
15 109 
15 112 
15 114 
15 116 
15 118 
15 120 
15 122 
15 124 
15 126 
15 127 
15 129 
15 132 
15 133 
15 135 
15 138 
15 139 
15 141 
15 143 
16 73 
16 75 
16 78 
16 80 
16 81 
16 84 
16 86 
16 88 
16 90 
16 92 
16 93 
16 96 
16 97 
16 100 
16 101 
16 104 
16 106 
16 107 
16 110 
16 111 
16 113 
16 115 
16 117 
16 119 
16 121 
16 123 
16 125 
16 128 
16 130 
16 131 
16 134 
16 136 
16 137 
16 140 
16 142 
16 144 
17 18 
17 74 
17 75 
17 78 
17 80 
17 81 
17 83 
17 86 
17 88 
17 89 
17 91 
17 93 
17 96 
17 98 
17 99 
17 101 
17 104 
17 106 
17 107 
17 109 
17 112 
17 114 
17 116 
17 117 
17 119 
17 121 
17 124 
17 126 
17 127 
17 129 
17 131 
17 133 
17 135 
17 138 
17 139 
17 142 
17 144 
18 73 
18 76 
18 77 
18 79 
18 82 
18 84 
18 85 
18 87 
18 90 
18 92 
18 94 
18 95 
18 97 
18 100 
18 102 
18 103 
18 105 
18 108 
18 110 
18 111 
18 113 
18 115 
18 118 
18 120 
18 122 
18 123 
18 125 
18 128 
18 130 
18 132 
18 134 
18 136 
18 137 
18 140 
18 141 
18 143 
19 20 
19 73 
19 76 
19 77 
19 79 
19 81 
19 84 
19 86 
19 88 
19 90 
19 92 
19 93 
19 95 
19 98 
19 99 
19 101 
19 103 
19 105 
19 108 
19 109 
19 112 
19 114 
19 116 
19 118 
19 119 
19 121 
19 123 
19 126 
19 128 
19 130 
19 131 
19 133 
19 136 
19 138 
19 140 
19 142 
19 143 
20 74 
20 75 
20 78 
20 80 
20 82 
20 83 
20 85 
20 87 
20 89 
20 91 
20 94 
20 96 
20 97 
20 100 
20 102 
20 104 
20 106 
20 107 
20 110 
20 111 
20 113 
20 115 
20 117 
20 120 
20 122 
20 124 
20 125 
20 127 
20 129 
20 132 
20 134 
20 135 
20 137 
20 139 
20 141 
20 144 
21 22 
21 74 
21 75 
21 78 
21 79 
21 81 
21 83 
21 85 
21 88 
21 90 
21 91 
21 93 
21 95 
21 97 
21 99 
21 102 
21 104 
21 106 
21 108 
21 109 
21 111 
21 114 
21 115 
21 118 
21 120 
21 122 
21 123 
21 125 
21 128 
21 130 
21 132 
21 133 
21 136 
21 138 
21 139 
21 142 
21 144 
22 73 
22 76 
22 77 
22 80 
22 82 
22 84 
22 86 
22 87 
22 89 
22 92 
22 94 
22 96 
22 98 
22 100 
22 101 
22 103 
22 105 
22 107 
22 110 
22 112 
22 113 
22 116 
22 117 
22 119 
22 121 
22 124 
22 126 
22 127 
22 129 
22 131 
22 134 
22 135 
22 137 
22 140 
22 141 
22 143 
23 24 
23 73 
23 76 
23 78 
23 79 
23 81 
23 83 
23 86 
23 87 
23 90 
23 91 
23 94 
23 95 
23 97 
23 100 
23 102 
23 104 
23 105 
23 107 
23 110 
23 112 
23 114 
23 115 
23 117 
23 119 
23 122 
23 124 
23 126 
23 127 
23 130 
23 131 
23 133 
23 136 
23 137 
23 139 
23 142 
23 143 
24 74 
24 75 
24 77 
24 80 
24 82 
24 84 
24 85 
24 88 
24 89 
24 92 
24 93 
24 96 
24 98 
24 99 
24 101 
24 103 
24 106 
24 108 
24 109 
24 111 
24 113 
24 116 
24 118 
24 120 
24 121 
24 123 
24 125 
24 128 
24 129 
24 132 
24 134 
24 135 
24 138 
24 140 
24 141 
24 144 
25 26 
25 74 
25 75 
25 77 
25 80 
25 82 
25 84 
25 86 
25 88 
25 90 
25 91 
25 93 
25 95 
25 97 
25 99 
25 102 
25 104 
25 105 
25 107 
25 110 
25 112 
25 114 
25 116 
25 117 
25 120 
25 121 
25 123 
25 125 
25 127 
25 129 
25 132 
25 133 
25 136 
25 137 
25 140 
25 141 
25 143 
26 73 
26 76 
26 78 
26 79 
26 81 
26 83 
26 85 
26 87 
26 89 
26 92 
26 94 
26 96 
26 98 
26 100 
26 101 
26 103 
26 106 
26 108 
26 109 
26 111 
26 113 
26 115 
26 118 
26 119 
26 122 
26 124 
26 126 
26 128 
26 130 
26 131 
26 134 
26 135 
26 138 
26 139 
26 142 
26 144 
27 28 
27 74 
27 76 
27 78 
27 80 
27 81 
27 84 
27 86 
27 88 
27 90 
27 92 
27 94 
27 96 
27 97 
27 100 
27 102 
27 103 
27 105 
27 108 
27 110 
27 112 
27 114 
27 116 
27 117 
27 120 
27 122 
27 123 
27 126 
27 128 
27 129 
27 132 
27 134 
27 135 
27 138 
27 139 
27 142 
27 144 
28 73 
28 75 
28 77 
28 79 
28 82 
28 83 
28 85 
28 87 
28 89 
28 91 
28 93 
28 95 
28 98 
28 99 
28 101 
28 104 
28 106 
28 107 
28 109 
28 111 
28 113 
28 115 
28 118 
28 119 
28 121 
28 124 
28 125 
28 127 
28 130 
28 131 
28 133 
28 136 
28 137 
28 140 
28 141 
28 143 
29 30 
29 73 
29 75 
29 78 
29 79 
29 81 
29 84 
29 86 
29 87 
29 89 
29 91 
29 94 
29 95 
29 98 
29 100 
29 101 
29 103 
29 106 
29 108 
29 109 
29 112 
29 114 
29 116 
29 117 
29 120 
29 121 
29 123 
29 125 
29 127 
29 130 
29 132 
29 134 
29 136 
29 137 
29 139 
29 141 
29 144 
30 74 
30 76 
30 77 
30 80 
30 82 
30 83 
30 85 
30 88 
30 90 
30 92 
30 93 
30 96 
30 97 
30 99 
30 102 
30 104 
30 105 
30 107 
30 110 
30 111 
30 113 
30 115 
30 118 
30 119 
30 122 
30 124 
30 126 
30 128 
30 129 
30 131 
30 133 
30 135 
30 138 
30 140 
30 142 
30 143 
31 32 
31 74 
31 76 
31 77 
31 80 
31 81 
31 84 
31 85 
31 88 
31 89 
31 92 
31 93 
31 95 
31 98 
31 100 
31 102 
31 104 
31 106 
31 107 
31 109 
31 112 
31 113 
31 115 
31 117 
31 119 
31 122 
31 123 
31 126 
31 127 
31 130 
31 132 
31 134 
31 136 
31 138 
31 139 
31 141 
31 143 
32 73 
32 75 
32 78 
32 79 
32 82 
32 83 
32 86 
32 87 
32 90 
32 91 
32 94 
32 96 
32 97 
32 99 
32 101 
32 103 
32 105 
32 108 
32 110 
32 111 
32 114 
32 116 
32 118 
32 120 
32 121 
32 124 
32 125 
32 128 
32 129 
32 131 
32 133 
32 135 
32 137 
32 140 
32 142 
32 144 
33 34 
33 74 
33 76 
33 78 
33 79 
33 81 
33 83 
33 86 
33 87 
33 89 
33 91 
33 93 
33 96 
33 98 
33 100 
33 101 
33 104 
33 105 
33 107 
33 110 
33 111 
33 114 
33 115 
33 118 
33 120 
33 121 
33 123 
33 126 
33 128 
33 129 
33 132 
33 134 
33 136 
33 138 
33 140 
33 141 
33 143 
34 73 
34 75 
34 77 
34 80 
34 82 
34 84 
34 85 
34 88 
34 90 
34 92 
34 94 
34 95 
34 97 
34 99 
34 102 
34 103 
34 106 
34 108 
34 109 
34 112 
34 113 
34 116 
34 117 
34 119 
34 122 
34 124 
34 125 
34 127 
34 130 
34 131 
34 133 
34 135 
34 137 
34 139 
34 142 
34 144 
35 36 
35 74 
35 76 
35 78 
35 79 
35 81 
35 84 
35 85 
35 87 
35 89 
35 91 
35 93 
35 95 
35 97 
35 99 
35 102 
35 104 
35 105 
35 108 
35 110 
35 112 
35 113 
35 116 
35 117 
35 119 
35 121 
35 124 
35 125 
35 128 
35 130 
35 131 
35 134 
35 135 
35 138 
35 140 
35 141 
35 144 
36 73 
36 75 
36 77 
36 80 
36 82 
36 83 
36 86 
36 88 
36 90 
36 92 
36 94 
36 96 
36 98 
36 100 
36 101 
36 103 
36 106 
36 107 
36 109 
36 111 
36 114 
36 115 
36 118 
36 120 
36 122 
36 123 
36 126 
36 127 
36 129 
36 132 
36 133 
36 136 
36 137 
36 139 
36 142 
36 143 
37 38 
37 73 
37 76 
37 78 
37 79 
37 82 
37 84 
37 86 
37 88 
37 90 
37 91 
37 93 
37 95 
37 97 
37 99 
37 101 
37 103 
37 106 
37 107 
37 110 
37 111 
37 113 
37 116 
37 118 
37 119 
37 122 
37 124 
37 126 
37 127 
37 129 
37 132 
37 134 
37 136 
37 138 
37 139 
37 141 
37 144 
38 74 
38 75 
38 77 
38 80 
38 81 
38 83 
38 85 
38 87 
38 89 
38 92 
38 94 
38 96 
38 98 
38 100 
38 102 
38 104 
38 105 
38 108 
38 109 
38 112 
38 114 
38 115 
38 117 
38 120 
38 121 
38 123 
38 125 
38 128 
38 130 
38 131 
38 133 
38 135 
38 137 
38 140 
38 142 
38 143 
39 40 
39 73 
39 76 
39 78 
39 80 
39 81 
39 84 
39 85 
39 88 
39 89 
39 91 
39 94 
39 96 
39 97 
39 99 
39 101 
39 103 
39 106 
39 107 
39 110 
39 112 
39 114 
39 115 
39 118 
39 120 
39 122 
39 123 
39 125 
39 127 
39 130 
39 131 
39 133 
39 135 
39 138 
39 140 
39 141 
39 143 
40 74 
40 75 
40 77 
40 79 
40 82 
40 83 
40 86 
40 87 
40 90 
40 92 
40 93 
40 95 
40 98 
40 100 
40 102 
40 104 
40 105 
40 108 
40 109 
40 111 
40 113 
40 116 
40 117 
40 119 
40 121 
40 124 
40 126 
40 128 
40 129 
40 132 
40 134 
40 136 
40 137 
40 139 
40 142 
40 144 
41 42 
41 73 
41 75 
41 77 
41 80 
41 82 
41 83 
41 86 
41 88 
41 89 
41 91 
41 94 
41 95 
41 97 
41 100 
41 101 
41 104 
41 105 
41 108 
41 110 
41 112 
41 113 
41 115 
41 118 
41 119 
41 121 
41 123 
41 126 
41 128 
41 130 
41 132 
41 133 
41 135 
41 138 
41 139 
41 141 
41 144 
42 74 
42 76 
42 78 
42 79 
42 81 
42 84 
42 85 
42 87 
42 90 
42 92 
42 93 
42 96 
42 98 
42 99 
42 102 
42 103 
42 106 
42 107 
42 109 
42 111 
42 114 
42 116 
42 117 
42 120 
42 122 
42 124 
42 125 
42 127 
42 129 
42 131 
42 134 
42 136 
42 137 
42 140 
42 142 
42 143 
43 44 
43 73 
43 75 
43 78 
43 79 
43 82 
43 83 
43 85 
43 88 
43 90 
43 91 
43 93 
43 95 
43 98 
43 100 
43 102 
43 103 
43 106 
43 108 
43 110 
43 112 
43 113 
43 115 
43 117 
43 120 
43 121 
43 123 
43 126 
43 127 
43 129 
43 131 
43 134 
43 135 
43 138 
43 140 
43 142 
43 143 
44 74 
44 76 
44 77 
44 80 
44 81 
44 84 
44 86 
44 87 
44 89 
44 92 
44 94 
44 96 
44 97 
44 99 
44 101 
44 104 
44 105 
44 107 
44 109 
44 111 
44 114 
44 116 
44 118 
44 119 
44 122 
44 124 
44 125 
44 128 
44 130 
44 132 
44 133 
44 136 
44 137 
44 139 
44 141 
44 144 
45 46 
45 73 
45 76 
45 77 
45 80 
45 81 
45 83 
45 85 
45 88 
45 90 
45 91 
45 94 
45 96 
45 98 
45 99 
45 101 
45 104 
45 105 
45 108 
45 110 
45 111 
45 113 
45 116 
45 117 
45 120 
45 121 
45 124 
45 125 
45 127 
45 130 
45 132 
45 134 
45 136 
45 138 
45 139 
45 142 
45 143 
46 74 
46 75 
46 78 
46 79 
46 82 
46 84 
46 86 
46 87 
46 89 
46 92 
46 93 
46 95 
46 97 
46 100 
46 102 
46 103 
46 106 
46 107 
46 109 
46 112 
46 114 
46 115 
46 118 
46 119 
46 122 
46 123 
46 126 
46 128 
46 129 
46 131 
46 133 
46 135 
46 137 
46 140 
46 141 
46 144 
47 48 
47 73 
47 75 
47 77 
47 80 
47 81 
47 84 
47 85 
47 87 
47 89 
47 91 
47 93 
47 96 
47 97 
47 99 
47 102 
47 103 
47 106 
47 108 
47 110 
47 112 
47 114 
47 115 
47 118 
47 119 
47 121 
47 124 
47 126 
47 128 
47 129 
47 132 
47 134 
47 136 
47 137 
47 139 
47 142 
47 143 
48 74 
48 76 
48 78 
48 79 
48 82 
48 83 
48 86 
48 88 
48 90 
48 92 
48 94 
48 95 
48 98 
48 100 
48 101 
48 104 
48 105 
48 107 
48 109 
48 111 
48 113 
48 116 
48 117 
48 120 
48 122 
48 123 
48 125 
48 127 
48 130 
48 131 
48 133 
48 135 
48 138 
48 140 
48 141 
48 144 
49 50 
49 73 
49 76 
49 77 
49 79 
49 82 
49 83 
49 85 
49 87 
49 89 
49 92 
49 93 
49 96 
49 97 
49 100 
49 101 
49 104 
49 106 
49 108 
49 110 
49 112 
49 114 
49 116 
49 117 
49 119 
49 122 
49 123 
49 125 
49 127 
49 129 
49 132 
49 133 
49 136 
49 138 
49 140 
49 142 
49 144 
50 74 
50 75 
50 78 
50 80 
50 81 
50 84 
50 86 
50 88 
50 90 
50 91 
50 94 
50 95 
50 98 
50 99 
50 102 
50 103 
50 105 
50 107 
50 109 
50 111 
50 113 
50 115 
50 118 
50 120 
50 121 
50 124 
50 126 
50 128 
50 130 
50 131 
50 134 
50 135 
50 137 
50 139 
50 141 
50 143 
51 52 
51 74 
51 76 
51 77 
51 80 
51 82 
51 83 
51 86 
51 87 
51 90 
51 91 
51 94 
51 96 
51 97 
51 99 
51 102 
51 103 
51 106 
51 108 
51 109 
51 111 
51 114 
51 115 
51 117 
51 119 
51 121 
51 123 
51 126 
51 127 
51 130 
51 131 
51 134 
51 136 
51 138 
51 140 
51 141 
51 144 
52 73 
52 75 
52 78 
52 79 
52 81 
52 84 
52 85 
52 88 
52 89 
52 92 
52 93 
52 95 
52 98 
52 100 
52 101 
52 104 
52 105 
52 107 
52 110 
52 112 
52 113 
52 116 
52 118 
52 120 
52 122 
52 124 
52 125 
52 128 
52 129 
52 132 
52 133 
52 135 
52 137 
52 139 
52 142 
52 143 
53 54 
53 73 
53 76 
53 78 
53 80 
53 82 
53 84 
53 85 
53 88 
53 89 
53 91 
53 94 
53 95 
53 98 
53 100 
53 102 
53 103 
53 105 
53 107 
53 109 
53 111 
53 114 
53 115 
53 117 
53 119 
53 121 
53 124 
53 125 
53 128 
53 129 
53 132 
53 133 
53 136 
53 138 
53 140 
53 142 
53 144 
54 74 
54 75 
54 77 
54 79 
54 81 
54 83 
54 86 
54 87 
54 90 
54 92 
54 93 
54 96 
54 97 
54 99 
54 101 
54 104 
54 106 
54 108 
54 110 
54 112 
54 113 
54 116 
54 118 
54 120 
54 122 
54 123 
54 126 
54 127 
54 130 
54 131 
54 134 
54 135 
54 137 
54 139 
54 141 
54 143 
55 56 
55 73 
55 76 
55 78 
55 80 
55 82 
55 83 
55 86 
55 87 
55 89 
55 92 
55 94 
55 95 
55 97 
55 99 
55 102 
55 104 
55 106 
55 107 
55 109 
55 112 
55 113 
55 116 
55 118 
55 120 
55 121 
55 123 
55 125 
55 128 
55 129 
55 131 
55 134 
55 136 
55 138 
55 139 
55 142 
55 143 
56 74 
56 75 
56 77 
56 79 
56 81 
56 84 
56 85 
56 88 
56 90 
56 91 
56 93 
56 96 
56 98 
56 100 
56 101 
56 103 
56 105 
56 108 
56 110 
56 111 
56 114 
56 115 
56 117 
56 119 
56 122 
56 124 
56 126 
56 127 
56 130 
56 132 
56 133 
56 135 
56 137 
56 140 
56 141 
56 144 
57 58 
57 73 
57 75 
57 77 
57 79 
57 82 
57 83 
57 86 
57 88 
57 89 
57 92 
57 93 
57 96 
57 98 
57 99 
57 102 
57 103 
57 105 
57 107 
57 110 
57 112 
57 114 
57 115 
57 117 
57 120 
57 122 
57 124 
57 125 
57 128 
57 130 
57 131 
57 134 
57 136 
57 138 
57 139 
57 141 
57 144 
58 74 
58 76 
58 78 
58 80 
58 81 
58 84 
58 85 
58 87 
58 90 
58 91 
58 94 
58 95 
58 97 
58 100 
58 101 
58 104 
58 106 
58 108 
58 109 
58 111 
58 113 
58 116 
58 118 
58 119 
58 121 
58 123 
58 126 
58 127 
58 129 
58 132 
58 133 
58 135 
58 137 
58 140 
58 142 
58 143 
59 60 
59 74 
59 75 
59 78 
59 80 
59 82 
59 84 
59 86 
59 87 
59 89 
59 91 
59 93 
59 96 
59 98 
59 100 
59 102 
59 103 
59 105 
59 108 
59 110 
59 111 
59 113 
59 116 
59 118 
59 119 
59 122 
59 123 
59 125 
59 127 
59 130 
59 131 
59 133 
59 136 
59 138 
59 139 
59 142 
59 143 
60 73 
60 76 
60 77 
60 79 
60 81 
60 83 
60 85 
60 88 
60 90 
60 92 
60 94 
60 95 
60 97 
60 99 
60 101 
60 104 
60 106 
60 107 
60 109 
60 112 
60 114 
60 115 
60 117 
60 120 
60 121 
60 124 
60 126 
60 128 
60 129 
60 132 
60 134 
60 135 
60 137 
60 140 
60 141 
60 144 
61 62 
61 73 
61 75 
61 77 
61 79 
61 81 
61 84 
61 86 
61 87 
61 90 
61 91 
61 94 
61 96 
61 98 
61 99 
61 102 
61 104 
61 105 
61 107 
61 109 
61 112 
61 113 
61 115 
61 118 
61 119 
61 122 
61 123 
61 125 
61 127 
61 129 
61 132 
61 134 
61 135 
61 138 
61 140 
61 142 
61 144 
62 74 
62 76 
62 78 
62 80 
62 82 
62 83 
62 85 
62 88 
62 89 
62 92 
62 93 
62 95 
62 97 
62 100 
62 101 
62 103 
62 106 
62 108 
62 110 
62 111 
62 114 
62 116 
62 117 
62 120 
62 121 
62 124 
62 126 
62 128 
62 130 
62 131 
62 133 
62 136 
62 137 
62 139 
62 141 
62 143 
63 64 
63 74 
63 76 
63 77 
63 79 
63 81 
63 83 
63 85 
63 88 
63 90 
63 91 
63 94 
63 96 
63 98 
63 100 
63 102 
63 103 
63 106 
63 107 
63 110 
63 112 
63 113 
63 116 
63 118 
63 119 
63 121 
63 123 
63 125 
63 128 
63 129 
63 131 
63 133 
63 136 
63 137 
63 139 
63 141 
63 144 
64 73 
64 75 
64 78 
64 80 
64 82 
64 84 
64 86 
64 87 
64 89 
64 92 
64 93 
64 95 
64 97 
64 99 
64 101 
64 104 
64 105 
64 108 
64 109 
64 111 
64 114 
64 115 
64 117 
64 120 
64 122 
64 124 
64 126 
64 127 
64 130 
64 132 
64 134 
64 135 
64 138 
64 140 
64 142 
64 143 
65 66 
65 73 
65 75 
65 78 
65 80 
65 81 
65 83 
65 85 
65 87 
65 90 
65 92 
65 93 
65 96 
65 97 
65 100 
65 102 
65 103 
65 105 
65 107 
65 109 
65 112 
65 113 
65 116 
65 118 
65 120 
65 121 
65 124 
65 126 
65 127 
65 130 
65 132 
65 133 
65 136 
65 138 
65 140 
65 141 
65 144 
66 74 
66 76 
66 77 
66 79 
66 82 
66 84 
66 86 
66 88 
66 89 
66 91 
66 94 
66 95 
66 98 
66 99 
66 101 
66 104 
66 106 
66 108 
66 110 
66 111 
66 114 
66 115 
66 117 
66 119 
66 122 
66 123 
66 125 
66 128 
66 129 
66 131 
66 134 
66 135 
66 137 
66 139 
66 142 
66 143 
67 68 
67 73 
67 75 
67 77 
67 79 
67 81 
67 84 
67 86 
67 88 
67 89 
67 91 
67 94 
67 96 
67 97 
67 100 
67 102 
67 104 
67 106 
67 108 
67 109 
67 111 
67 113 
67 116 
67 117 
67 120 
67 122 
67 124 
67 126 
67 128 
67 129 
67 131 
67 133 
67 136 
67 138 
67 140 
67 141 
67 143 
68 74 
68 76 
68 78 
68 80 
68 82 
68 83 
68 85 
68 87 
68 90 
68 92 
68 93 
68 95 
68 98 
68 99 
68 101 
68 103 
68 105 
68 107 
68 110 
68 112 
68 114 
68 115 
68 118 
68 119 
68 121 
68 123 
68 125 
68 127 
68 130 
68 132 
68 134 
68 135 
68 137 
68 139 
68 142 
68 144 
69 70 
69 74 
69 76 
69 78 
69 79 
69 82 
69 84 
69 86 
69 88 
69 89 
69 92 
69 94 
69 96 
69 98 
69 99 
69 102 
69 104 
69 106 
69 108 
69 110 
69 112 
69 113 
69 115 
69 118 
69 120 
69 121 
69 124 
69 126 
69 127 
69 130 
69 132 
69 133 
69 136 
69 137 
69 140 
69 142 
69 144 
70 73 
70 75 
70 77 
70 80 
70 81 
70 83 
70 85 
70 87 
70 90 
70 91 
70 93 
70 95 
70 97 
70 100 
70 101 
70 103 
70 105 
70 107 
70 109 
70 111 
70 114 
70 116 
70 117 
70 119 
70 122 
70 123 
70 125 
70 128 
70 129 
70 131 
70 134 
70 135 
70 138 
70 139 
70 141 
70 143 
71 72 
71 74 
71 75 
71 78 
71 79 
71 82 
71 83 
71 85 
71 88 
71 89 
71 91 
71 94 
71 96 
71 97 
71 99 
71 101 
71 103 
71 105 
71 107 
71 109 
71 112 
71 113 
71 116 
71 117 
71 119 
71 122 
71 123 
71 126 
71 128 
71 130 
71 132 
71 134 
71 136 
71 137 
71 140 
71 142 
71 143 
72 73 
72 76 
72 77 
72 80 
72 81 
72 84 
72 86 
72 87 
72 90 
72 92 
72 93 
72 95 
72 98 
72 100 
72 102 
72 104 
72 106 
72 108 
72 110 
72 111 
72 114 
72 115 
72 118 
72 120 
72 121 
72 124 
72 125 
72 127 
72 129 
72 131 
72 133 
72 135 
72 138 
72 139 
72 141 
72 144 
73 74 
75 76 
77 78 
79 80 
81 82 
83 84 
85 86 
87 88 
89 90 
91 92 
93 94 
95 96 
97 98 
99 100 
101 102 
103 104 
105 106 
107 108 
109 110 
111 112 
113 114 
115 116 
117 118 
119 120 
121 122 
123 124 
125 126 
127 128 
129 130 
131 132 
133 134 
135 136 
137 138 
139 140 
141 142 
143 144 
